c
c Renamed file of cu.cnf 
c Variables are renamed according to left2right.ord 
c
c Date: Thu Apr 29 14:49:17 PDT 2004 by (jinbo)
c Host: Linux solution 2.4.18-4smp #1 SMP Thu May 2 18:32:34 EDT 2002 i686 unknown
c
c Copyright (c) 2001 Fadi A. Aloul.
c
p cnf 94 235
-3 -2 0
2 3 0
-2 1 0
-1 2 0
-77 -85 0
-70 -85 0
85 77 70 0
-85 86 0
-86 85 0
-56 -48 0
63 -48 0
-64 -48 0
-36 -48 0
48 56 -63 64 36 0
-48 47 0
-47 48 0
-56 -73 0
63 -73 0
-64 -73 0
-72 -73 0
73 56 -63 64 72 0
-73 80 0
-80 73 0
-56 -52 0
63 -52 0
-64 -52 0
-51 -52 0
52 56 -63 64 51 0
-52 50 0
-50 52 0
-56 -55 0
63 -55 0
-64 -55 0
-53 -55 0
55 56 -63 64 53 0
-55 54 0
-54 55 0
61 -39 0
-44 -39 0
39 -61 44 0
-39 35 0
-21 -34 0
-44 -34 0
34 21 44 0
-34 35 0
-35 39 34 0
-56 -93 0
-84 -93 0
93 56 84 0
-93 94 0
-94 93 0
61 -43 0
-44 -43 0
43 -61 44 0
-43 40 0
-42 -41 0
-44 -41 0
41 42 44 0
-41 40 0
-40 43 41 0
56 -91 0
90 -91 0
91 -56 -90 0
-91 92 0
-92 91 0
-61 -88 0
-77 -88 0
90 -88 0
88 61 77 -90 0
-88 89 0
-63 -87 0
-77 -87 0
90 -87 0
87 63 77 -90 0
-87 89 0
-89 88 87 0
-61 -67 0
64 -67 0
67 61 -64 0
-67 70 0
61 -66 0
-64 -66 0
66 -61 64 0
-66 70 0
61 -65 0
63 -65 0
65 -61 -63 0
-65 70 0
64 -71 0
63 -71 0
71 -64 -63 0
-71 70 0
-61 -69 0
-63 -69 0
69 61 63 0
-69 70 0
-64 -68 0
-63 -68 0
68 64 63 0
-68 70 0
-70 67 66 65 71 69 68 0
-77 -4 0
-70 -4 0
4 77 70 0
-4 3 0
-3 4 0
77 -38 0
38 -77 0
-38 36 0
61 -37 0
37 -61 0
-37 36 0
24 -32 0
32 -24 0
-32 36 0
25 -33 0
33 -25 0
-33 36 0
-36 38 37 32 33 0
77 -76 0
76 -77 0
-76 72 0
61 -62 0
62 -61 0
-62 72 0
24 -26 0
26 -24 0
-26 72 0
-25 -27 0
27 25 0
-27 72 0
-72 76 62 26 27 0
77 -78 0
78 -77 0
-78 51 0
61 -59 0
59 -61 0
-59 51 0
-24 -28 0
28 24 0
-28 51 0
25 -29 0
29 -25 0
-29 51 0
-51 78 59 28 29 0
77 -74 0
74 -77 0
-74 53 0
61 -58 0
58 -61 0
-58 53 0
-24 -30 0
30 24 0
-30 53 0
-25 -31 0
31 25 0
-31 53 0
-53 74 58 30 31 0
-7 -8 0
8 7 0
-8 21 0
25 -22 0
-24 -22 0
23 -22 0
22 -25 24 -23 0
-22 21 0
25 -19 0
24 -19 0
18 -19 0
19 -25 -24 -18 0
-19 21 0
-25 -20 0
24 -20 0
17 -20 0
20 25 -24 -17 0
-20 21 0
-21 8 22 19 20 0
-64 -49 0
49 64 0
-49 44 0
77 -75 0
75 -77 0
-75 44 0
56 -57 0
61 -57 0
57 -56 -61 0
-57 44 0
63 -60 0
61 -60 0
60 -63 -61 0
-60 44 0
-44 49 75 57 60 0
-5 -6 0
-9 -6 0
6 5 9 0
-6 7 0
-7 6 0
11 -10 0
10 -11 0
-10 9 0
-63 -16 0
16 63 0
-16 9 0
-56 -13 0
13 56 0
-13 9 0
-25 -15 0
-24 -15 0
14 -15 0
15 25 24 -14 0
-15 9 0
-9 10 16 13 15 0
-63 -83 0
83 63 0
-83 84 0
64 -82 0
82 -64 0
-82 84 0
77 -81 0
81 -77 0
-81 84 0
61 -79 0
79 -61 0
-79 84 0
-84 83 82 81 79 0
-56 -46 0
46 56 0
-46 42 0
11 -12 0
12 -11 0
-12 42 0
-63 -45 0
45 63 0
-45 42 0
-42 46 12 45 0
